(set-info :smt-lib-version 2.6)
(set-logic QF_FP)
(set-info :source |
Generated by: Chenqi Cui
Generated on: 2025-10-11
Generator: AutoSMTGen
Application: Generating SMT constraints with small solution spaces to make them challenging for SMT solvers
Target solver: Z3, CVC5, Bitwuzla
|)
(set-info :license "https://creativecommons.org/licenses/by/4.0/")
(set-info :category "industrial")
(set-info :status sat)
; benchmark generated from python API

(declare-fun x7 () (_ FloatingPoint 11 53))
(declare-fun x6 () (_ FloatingPoint 11 53))
(declare-fun x5 () (_ FloatingPoint 11 53))
(declare-fun x4 () (_ FloatingPoint 11 53))
(declare-fun x3 () (_ FloatingPoint 11 53))
(declare-fun x2 () (_ FloatingPoint 11 53))
(declare-fun x1 () (_ FloatingPoint 11 53))
(declare-fun x0 () (_ FloatingPoint 11 53))
(assert
 (let ((?x18 (fp.add roundNearestTiesToEven (fp.mul roundNearestTiesToEven (fp #b1 #b10000000101 #x5e3458c97b094) x0) (fp.mul roundNearestTiesToEven (fp #b1 #b10000000100 #x3db0c5b9f27d6) x1))))
 (let ((?x21 (fp.add roundNearestTiesToEven ?x18 (fp.mul roundNearestTiesToEven (fp #b0 #b10000000001 #x0a46006bab46c) x2))))
 (let ((?x24 (fp.add roundNearestTiesToEven ?x21 (fp.mul roundNearestTiesToEven (fp #b0 #b10000000100 #x8578fcbd08bae) x3))))
 (let ((?x27 (fp.add roundNearestTiesToEven ?x24 (fp.mul roundNearestTiesToEven (fp #b0 #b10000000101 #x5779f2b7fc1ee) x4))))
 (let ((?x30 (fp.add roundNearestTiesToEven ?x27 (fp.mul roundNearestTiesToEven (fp #b0 #b10000000100 #xa6f32d54ccda0) x5))))
 (let ((?x33 (fp.add roundNearestTiesToEven ?x30 (fp.mul roundNearestTiesToEven (fp #b1 #b10000000100 #xba7864cc7e55a) x6))))
 (let ((?x36 (fp.add roundNearestTiesToEven ?x33 (fp.mul roundNearestTiesToEven (fp #b1 #b10000000011 #x642dbb9ae29c9) x7))))
 (fp.leq ?x36 (fp #b0 #b10000000100 #xee639484f979c))))))))))
(assert
 (let ((?x60 (fp.add roundNearestTiesToEven (fp.mul roundNearestTiesToEven (fp #b0 #b10000000100 #xcef1c69084623) x0) (fp.mul roundNearestTiesToEven (fp #b1 #b10000000100 #xbe56d22018fcf) x1))))
 (let ((?x63 (fp.add roundNearestTiesToEven ?x60 (fp.mul roundNearestTiesToEven (fp #b0 #b10000000010 #xe722cc3636e7e) x2))))
 (let ((?x66 (fp.add roundNearestTiesToEven ?x63 (fp.mul roundNearestTiesToEven (fp #b1 #b10000000100 #x60d4c8c28d030) x3))))
 (let ((?x69 (fp.add roundNearestTiesToEven ?x66 (fp.mul roundNearestTiesToEven (fp #b1 #b01111111111 #x0def7e5cbb591) x4))))
 (let ((?x72 (fp.add roundNearestTiesToEven ?x69 (fp.mul roundNearestTiesToEven (fp #b0 #b10000000000 #xd44b61b87e7f7) x5))))
 (let ((?x75 (fp.add roundNearestTiesToEven ?x72 (fp.mul roundNearestTiesToEven (fp #b0 #b10000000001 #xd1d9a60eaad85) x6))))
 (let ((?x78 (fp.add roundNearestTiesToEven ?x75 (fp.mul roundNearestTiesToEven (fp #b1 #b10000000100 #xc5cf5f61c86ee) x7))))
 (fp.leq ?x78 (fp #b0 #b10000000011 #xb46a7576cc76c))))))))))
(assert
 (let ((?x85 (fp.add roundNearestTiesToEven (fp.mul roundNearestTiesToEven (fp #b0 #b10000000101 #x206af63366505) x0) (fp.mul roundNearestTiesToEven (fp #b0 #b10000000100 #x6cdcf0c144c4d) x1))))
 (let ((?x88 (fp.add roundNearestTiesToEven ?x85 (fp.mul roundNearestTiesToEven (fp #b1 #b10000000101 #x4bd8725b0e0ed) x2))))
 (let ((?x91 (fp.add roundNearestTiesToEven ?x88 (fp.mul roundNearestTiesToEven (fp #b1 #b10000000001 #xc63754b0cbcee) x3))))
 (let ((?x94 (fp.add roundNearestTiesToEven ?x91 (fp.mul roundNearestTiesToEven (fp #b0 #b10000000011 #x4b3ab55793805) x4))))
 (let ((?x97 (fp.add roundNearestTiesToEven ?x94 (fp.mul roundNearestTiesToEven (fp #b0 #b10000000011 #xe66078ebebec8) x5))))
 (let ((?x100 (fp.add roundNearestTiesToEven ?x97 (fp.mul roundNearestTiesToEven (fp #b1 #b10000000100 #x0a6468b072e71) x6))))
 (let ((?x103 (fp.add roundNearestTiesToEven ?x100 (fp.mul roundNearestTiesToEven (fp #b0 #b10000000101 #xa1442ff2a24a4) x7))))
 (fp.leq ?x103 (fp #b0 #b10000000101 #x17621fa26f3bc))))))))))
(assert
 (let ((?x110 (fp.add roundNearestTiesToEven (fp.mul roundNearestTiesToEven (fp #b0 #b10000000100 #xfc4c28e2677c1) x0) (fp.mul roundNearestTiesToEven (fp #b0 #b10000000010 #x9c8d010ea6c72) x1))))
 (let ((?x113 (fp.add roundNearestTiesToEven ?x110 (fp.mul roundNearestTiesToEven (fp #b0 #b10000000101 #x64fc929eecd6f) x2))))
 (let ((?x116 (fp.add roundNearestTiesToEven ?x113 (fp.mul roundNearestTiesToEven (fp #b1 #b10000000010 #x7d863e07ee375) x3))))
 (let ((?x119 (fp.add roundNearestTiesToEven ?x116 (fp.mul roundNearestTiesToEven (fp #b1 #b10000000101 #x2af96938ac024) x4))))
 (let ((?x122 (fp.add roundNearestTiesToEven ?x119 (fp.mul roundNearestTiesToEven (fp #b1 #b10000000100 #x5fa691c9a89da) x5))))
 (let ((?x125 (fp.add roundNearestTiesToEven ?x122 (fp.mul roundNearestTiesToEven (fp #b0 #b10000000101 #x3d84374bc7f9b) x6))))
 (let ((?x128 (fp.add roundNearestTiesToEven ?x125 (fp.mul roundNearestTiesToEven (fp #b0 #b10000000011 #x47bf05fd6b05a) x7))))
 (fp.leq ?x128 (fp #b1 #b10000000100 #x9722d9943577a))))))))))
(assert
 (let ((?x135 (fp.add roundNearestTiesToEven (fp.mul roundNearestTiesToEven (fp #b0 #b10000000010 #x7d828abb4fa6d) x0) (fp.mul roundNearestTiesToEven (fp #b0 #b10000000101 #x60899774ab727) x1))))
 (let ((?x138 (fp.add roundNearestTiesToEven ?x135 (fp.mul roundNearestTiesToEven (fp #b1 #b10000000101 #x748c3c3f11b53) x2))))
 (let ((?x141 (fp.add roundNearestTiesToEven ?x138 (fp.mul roundNearestTiesToEven (fp #b1 #b10000000101 #x1e67d635e87d6) x3))))
 (let ((?x144 (fp.add roundNearestTiesToEven ?x141 (fp.mul roundNearestTiesToEven (fp #b1 #b10000000101 #x5369724efdcc4) x4))))
 (let ((?x147 (fp.add roundNearestTiesToEven ?x144 (fp.mul roundNearestTiesToEven (fp #b0 #b10000000101 #x2eee948f7bd54) x5))))
 (let ((?x150 (fp.add roundNearestTiesToEven ?x147 (fp.mul roundNearestTiesToEven (fp #b0 #b10000000100 #x22aea24667351) x6))))
 (let ((?x153 (fp.add roundNearestTiesToEven ?x150 (fp.mul roundNearestTiesToEven (fp #b1 #b10000000100 #x088516141c21f) x7))))
 (fp.leq ?x153 (fp #b1 #b10000000100 #x5594f02d1f079))))))))))
(assert
 (let ((?x160 (fp.add roundNearestTiesToEven (fp.mul roundNearestTiesToEven (fp #b0 #b10000000011 #xa8ee94db01d14) x0) (fp.mul roundNearestTiesToEven (fp #b1 #b10000000101 #x429e79411fa83) x1))))
 (let ((?x163 (fp.add roundNearestTiesToEven ?x160 (fp.mul roundNearestTiesToEven (fp #b0 #b10000000101 #x64a834b8974ea) x2))))
 (let ((?x166 (fp.add roundNearestTiesToEven ?x163 (fp.mul roundNearestTiesToEven (fp #b1 #b10000000100 #xdbf0d831d218b) x3))))
 (let ((?x169 (fp.add roundNearestTiesToEven ?x166 (fp.mul roundNearestTiesToEven (fp #b1 #b10000000101 #x6d81ff0dacd1a) x4))))
 (let ((?x172 (fp.add roundNearestTiesToEven ?x169 (fp.mul roundNearestTiesToEven (fp #b1 #b10000000100 #x47d220b0e5f12) x5))))
 (let ((?x175 (fp.add roundNearestTiesToEven ?x172 (fp.mul roundNearestTiesToEven (fp #b1 #b10000000011 #xe45f5a28a3ec3) x6))))
 (let ((?x178 (fp.add roundNearestTiesToEven ?x175 (fp.mul roundNearestTiesToEven (fp #b0 #b10000000001 #xe128cdfd20f0c) x7))))
 (fp.leq ?x178 (fp #b1 #b10000000100 #x25e812dfb0a7e))))))))))
(assert
 (let ((?x185 (fp.add roundNearestTiesToEven (fp.mul roundNearestTiesToEven (fp #b1 #b10000000100 #x4308a5e9c0dfa) x0) (fp.mul roundNearestTiesToEven (fp #b0 #b10000000100 #xb905fcbfecc87) x1))))
 (let ((?x188 (fp.add roundNearestTiesToEven ?x185 (fp.mul roundNearestTiesToEven (fp #b1 #b10000000100 #xac58c508387c4) x2))))
 (let ((?x191 (fp.add roundNearestTiesToEven ?x188 (fp.mul roundNearestTiesToEven (fp #b1 #b10000000100 #xebbb12fbabb2a) x3))))
 (let ((?x194 (fp.add roundNearestTiesToEven ?x191 (fp.mul roundNearestTiesToEven (fp #b0 #b01111111110 #xf85325f889501) x4))))
 (let ((?x197 (fp.add roundNearestTiesToEven ?x194 (fp.mul roundNearestTiesToEven (fp #b1 #b10000000101 #x505c5f12b4c23) x5))))
 (let ((?x200 (fp.add roundNearestTiesToEven ?x197 (fp.mul roundNearestTiesToEven (fp #b1 #b10000000100 #x109069cb222e5) x6))))
 (let ((?x203 (fp.add roundNearestTiesToEven ?x200 (fp.mul roundNearestTiesToEven (fp #b0 #b10000000011 #xa5a8d39f54aa6) x7))))
 (fp.leq ?x203 (fp #b0 #b10000000000 #x2be316847fa9d))))))))))
(assert
 (let ((?x210 (fp.add roundNearestTiesToEven (fp.mul roundNearestTiesToEven (fp #b1 #b10000000001 #x6018bd5cd6e2a) x0) (fp.mul roundNearestTiesToEven (fp #b1 #b10000000100 #xda06d147898e0) x1))))
 (let ((?x213 (fp.add roundNearestTiesToEven ?x210 (fp.mul roundNearestTiesToEven (fp #b1 #b10000000011 #xd2eee94d63c1e) x2))))
 (let ((?x216 (fp.add roundNearestTiesToEven ?x213 (fp.mul roundNearestTiesToEven (fp #b0 #b10000000010 #x50d9668d65eff) x3))))
 (let ((?x219 (fp.add roundNearestTiesToEven ?x216 (fp.mul roundNearestTiesToEven (fp #b1 #b10000000101 #x870ff1c368cc6) x4))))
 (let ((?x222 (fp.add roundNearestTiesToEven ?x219 (fp.mul roundNearestTiesToEven (fp #b0 #b10000000101 #x256085023414d) x5))))
 (let ((?x225 (fp.add roundNearestTiesToEven ?x222 (fp.mul roundNearestTiesToEven (fp #b1 #b10000000011 #xda6e8bd1a7ff4) x6))))
 (let ((?x228 (fp.add roundNearestTiesToEven ?x225 (fp.mul roundNearestTiesToEven (fp #b0 #b10000000100 #x731c9372252a7) x7))))
 (fp.leq ?x228 (fp #b1 #b10000000011 #x99de4da615e64))))))))))
(assert
 (let ((?x235 (fp.add roundNearestTiesToEven (fp.mul roundNearestTiesToEven (fp #b0 #b10000000100 #x4a156f38c76ae) x0) (fp.mul roundNearestTiesToEven (fp #b1 #b10000000100 #xd3f5147cc7bd5) x1))))
 (let ((?x238 (fp.add roundNearestTiesToEven ?x235 (fp.mul roundNearestTiesToEven (fp #b1 #b10000000100 #x1119292ae3eea) x2))))
 (let ((?x241 (fp.add roundNearestTiesToEven ?x238 (fp.mul roundNearestTiesToEven (fp #b1 #b10000000101 #x5822cad36fd2b) x3))))
 (let ((?x244 (fp.add roundNearestTiesToEven ?x241 (fp.mul roundNearestTiesToEven (fp #b1 #b01111111101 #xc4bb9b85ea147) x4))))
 (let ((?x247 (fp.add roundNearestTiesToEven ?x244 (fp.mul roundNearestTiesToEven (fp #b1 #b10000000011 #xa919efba3088c) x5))))
 (let ((?x250 (fp.add roundNearestTiesToEven ?x247 (fp.mul roundNearestTiesToEven (fp #b0 #b10000000101 #x357d31cf38e34) x6))))
 (let ((?x253 (fp.add roundNearestTiesToEven ?x250 (fp.mul roundNearestTiesToEven (fp #b0 #b10000000101 #x493567bead423) x7))))
 (fp.leq ?x253 (fp #b1 #b10000000101 #x1e130b19ee320))))))))))
(assert
 (let ((?x260 (fp.add roundNearestTiesToEven (fp.mul roundNearestTiesToEven (fp #b0 #b10000000101 #x35cccdc10b461) x0) (fp.mul roundNearestTiesToEven (fp #b0 #b10000000101 #x29b3f7d674267) x1))))
 (let ((?x263 (fp.add roundNearestTiesToEven ?x260 (fp.mul roundNearestTiesToEven (fp #b1 #b10000000100 #x64488b8a51e11) x2))))
 (let ((?x266 (fp.add roundNearestTiesToEven ?x263 (fp.mul roundNearestTiesToEven (fp #b0 #b10000000100 #xd673e23aaee66) x3))))
 (let ((?x269 (fp.add roundNearestTiesToEven ?x266 (fp.mul roundNearestTiesToEven (fp #b1 #b10000000011 #x5d923d0575810) x4))))
 (let ((?x272 (fp.add roundNearestTiesToEven ?x269 (fp.mul roundNearestTiesToEven (fp #b1 #b10000000100 #x4a87773da0042) x5))))
 (let ((?x275 (fp.add roundNearestTiesToEven ?x272 (fp.mul roundNearestTiesToEven (fp #b1 #b10000000010 #x0c96ebfa172b2) x6))))
 (let ((?x278 (fp.add roundNearestTiesToEven ?x275 (fp.mul roundNearestTiesToEven (fp #b0 #b10000000001 #x8f5a97850fb2a) x7))))
 (fp.leq ?x278 (fp #b1 #b10000000010 #x07a1f7de3f719))))))))))
(assert
 (let ((?x285 (fp.add roundNearestTiesToEven (fp.mul roundNearestTiesToEven (fp #b1 #b10000000011 #x5d237e099ccf6) x0) (fp.mul roundNearestTiesToEven (fp #b1 #b10000000101 #x4aefbfe976e31) x1))))
(let ((?x288 (fp.add roundNearestTiesToEven ?x285 (fp.mul roundNearestTiesToEven (fp #b1 #b10000000101 #x0be764cbd6c7a) x2))))
(let ((?x291 (fp.add roundNearestTiesToEven ?x288 (fp.mul roundNearestTiesToEven (fp #b1 #b10000000100 #xbd81568877e18) x3))))
(let ((?x294 (fp.add roundNearestTiesToEven ?x291 (fp.mul roundNearestTiesToEven (fp #b0 #b10000000100 #x47ec4153742f0) x4))))
(let ((?x297 (fp.add roundNearestTiesToEven ?x294 (fp.mul roundNearestTiesToEven (fp #b0 #b10000000011 #x2edb0ffc944d6) x5))))
(let ((?x300 (fp.add roundNearestTiesToEven ?x297 (fp.mul roundNearestTiesToEven (fp #b0 #b10000000101 #x10be06ca0d2bd) x6))))
(let ((?x303 (fp.add roundNearestTiesToEven ?x300 (fp.mul roundNearestTiesToEven (fp #b0 #b10000000101 #x186b51df6eef7) x7))))
(fp.leq ?x303 (fp #b1 #b10000000100 #x19d7c602c5448))))))))))
(check-sat)
(exit)
